Route #1: 3 7 29 4 44 12 5
Route #2: 11 16 26 24 18 39 9 14
Route #3: 22 25 45 34 15 10
Route #4: 23 6 31 38 2 43
Route #5: 32 37 20 30 42 28
Route #6: 40 36 35 27 13
Route #7: 41 21 17 8 19 33
cost 1155